NAME : portgen-50-307
COMMENT : portgen N=50, seed=307
TYPE : TSP
DIMENSION : 50
EDGE_WEIGHT_TYPE : EUC_2D
NODE_COORD_SECTION
1 2215 2094
2 1477 2013
3 2148 1214
4 1379 2157
5 502 2577
6 2963 1773
7 1655 547
8 2026 2477
9 1561 867
10 2230 2511
11 330 20
12 1748 2826
13 2339 244
14 1949 2170
15 1636 1955
16 779 1438
17 56 1784
18 2292 1141
19 593 1835
20 1639 1477
21 2184 1401
22 2516 722
23 2750 1424
24 3129 159
25 1422 281
26 377 426
27 2129 2629
28 746 776
29 2037 2855
30 2884 1006
31 621 2707
32 518 2187
33 393 1562
34 2419 933
35 959 602
36 2511 1402
37 2607 1949
38 2133 3067
39 1053 2282
40 2080 1563
41 1370 2257
42 2449 630
43 1334 1234
44 920 1031
45 1391 729
46 1884 2823
47 875 1037
48 2129 782
49 1956 566
50 1751 2846
